1 1949
2 1843
3 1745
10 1725
11 1695
16 1688
25 1679
36 1673
67 1665
94 1642
265 1611
298 1610



1 1987
2 1847
3 1752
4 1734
15 1688
32 1663
39 1637
459 1625
708 1614



1 1874
2 1775
3 1716
5 1705
15 1689
30 1653
63 1638
223 1624
256 1587



1 1942
2 1806
4 1754
7 1753
8 1721
15 1720
23 1717
27 1680
49 1630
468 1623
574 1617



1 1884
2 1774
3 1773
4 1761
5 1728
6 1679
43 1669
58 1663
70 1648
95 1643
476 1608
572 1582



